Ga32 O48
1.0
   5.9156964230574394    0.0000000000000000   -1.4680609120092765
  -0.6667571286667324   11.3006977119907575   -2.6867653732122925
   0.0000000000000000    0.0000000000000000   12.6529717399999999
Ga O
32 48
direct
   0.3294191500000000    0.1573651700000000    0.1588382900000000 Ga
   0.3294191500000000    0.1573651700000000    0.6588382900000000 Ga
   0.3294191500000000    0.6573651700000001    0.1588382900000000 Ga
   0.3294191500000000    0.6573651700000001    0.6588382900000000 Ga
   0.8294191500000000    0.1573651700000000    0.1588382900000000 Ga
   0.8294191500000000    0.1573651700000000    0.6588383000000000 Ga
   0.8294191500000000    0.6573651700000001    0.1588382900000000 Ga
   0.8294191500000000    0.6573651700000001    0.6588383000000000 Ga
   0.1705808500000000    0.3426348300000000    0.3411617000000000 Ga
   0.1705808500000000    0.3426348300000000    0.8411617000000000 Ga
   0.1705808500000000    0.8426348299999999    0.3411617000000000 Ga
   0.1705808500000000    0.8426348299999999    0.8411617000000000 Ga
   0.6705808500000000    0.3426348300000000    0.3411617000000000 Ga
   0.6705808500000000    0.3426348300000000    0.8411617000000000 Ga
   0.6705808500000000    0.8426348299999999    0.3411617000000000 Ga
   0.6705808500000000    0.8426348299999999    0.8411617000000000 Ga
   0.0452367000000000    0.3973930000000000    0.0904743900000000 Ga
   0.0452367000000000    0.3973930000000000    0.5904743900000000 Ga
   0.0452367000000000    0.8973930000000000    0.0904743900000000 Ga
   0.0452367000000000    0.8973930000000000    0.5904743900000000 Ga
   0.5452367000000000    0.3973930000000000    0.0904743900000000 Ga
   0.5452367000000000    0.3973930000000000    0.5904743900000000 Ga
   0.5452367000000000    0.8973930000000000    0.0904743900000000 Ga
   0.5452367000000000    0.8973930000000000    0.5904743900000000 Ga
   0.4547633000000000    0.1026070000000000    0.4095256100000000 Ga
   0.4547633000000000    0.1026070000000000    0.9095256000000000 Ga
   0.4547633000000000    0.6026070000000000    0.4095256100000000 Ga
   0.4547633000000000    0.6026070000000000    0.9095256100000000 Ga
   0.9547633000000000    0.1026070000000000    0.4095256100000000 Ga
   0.9547633000000000    0.1026070000000000    0.9095256100000000 Ga
   0.9547633000000000    0.6026070000000000    0.4095256100000000 Ga
   0.9547633000000000    0.6026070000000000    0.9095256100000000 Ga
   0.2482345700000000    0.1283320500000000    0.4964691200000000 O
   0.2482345700000000    0.1283320500000000    0.9964691200000000 O
   0.2482345700000000    0.6283320500000000    0.4964691200000000 O
   0.2482345700000000    0.6283320500000000    0.9964691200000000 O
   0.7482345700000000    0.1283320500000000    0.4964691200000000 O
   0.7482345700000000    0.1283320500000000    0.9964691200000000 O
   0.7482345700000000    0.6283320500000000    0.4964691200000000 O
   0.7482345700000000    0.6283320500000000    0.9964691200000000 O
   0.2517654300000000    0.3716679500000000    0.0035308800000000 O
   0.2517654300000000    0.3716679500000000    0.5035308700000000 O
   0.2517654300000000    0.8716679600000000    0.0035308800000000 O
   0.2517654300000000    0.8716679600000000    0.5035308800000000 O
   0.7517654400000000    0.3716679500000000    0.0035308800000000 O
   0.7517654400000000    0.3716679500000000    0.5035308800000000 O
   0.7517654400000000    0.8716679600000000    0.0035308800000000 O
   0.7517654400000000    0.8716679600000000    0.5035308800000000 O
   0.0866855300000000    0.2816150800000000    0.1733710600000000 O
   0.0866855300000000    0.2816150800000000    0.6733710600000000 O
   0.0866855300000000    0.7816150800000000    0.1733710600000000 O
   0.0866855300000000    0.7816150800000000    0.6733710600000000 O
   0.5866855300000000    0.2816150800000000    0.1733710600000000 O
   0.5866855300000000    0.2816150800000000    0.6733710600000000 O
   0.5866855300000000    0.7816150800000000    0.1733710600000000 O
   0.5866855300000000    0.7816150800000000    0.6733710600000000 O
   0.4133144700000000    0.2183849200000000    0.3266289400000000 O
   0.4133144700000000    0.2183849200000000    0.8266289400000000 O
   0.4133144700000000    0.7183849200000000    0.3266289400000000 O
   0.4133144700000000    0.7183849200000000    0.8266289400000000 O
   0.9133144700000000    0.2183849200000000    0.3266289400000000 O
   0.9133144700000000    0.2183849200000000    0.8266289400000000 O
   0.9133144700000000    0.7183849200000000    0.3266289400000000 O
   0.9133144700000000    0.7183849200000000    0.8266289400000000 O
   0.4177477600000000    0.4454229600000000    0.3354950200000000 O
   0.4177477600000000    0.4454229600000000    0.8354950100000000 O
   0.4177477600000000    0.9454229600000000    0.3354950200000000 O
   0.4177477600000000    0.9454229600000000    0.8354950100000000 O
   0.9177477600000000    0.4454229600000000    0.3354950200000000 O
   0.9177477600000000    0.4454229600000000    0.8354950200000000 O
   0.9177477600000000    0.9454229600000000    0.3354950200000000 O
   0.9177477600000000    0.9454229600000000    0.8354950200000000 O
   0.0822522400000000    0.0545770400000000    0.1645049800000000 O
   0.0822522400000000    0.0545770400000000    0.6645049800000000 O
   0.0822522400000000    0.5545770400000000    0.1645049800000000 O
   0.0822522400000000    0.5545770400000000    0.6645049800000000 O
   0.5822522400000000    0.0545770400000000    0.1645049800000000 O
   0.5822522400000000    0.0545770400000000    0.6645049800000000 O
   0.5822522400000000    0.5545770400000000    0.1645049800000000 O
   0.5822522400000000    0.5545770400000000    0.6645049800000000 O
