Ga4 O5
1.0
   2.9578482115287197    0.0000000000000000   -0.7340304560046382
  -0.3333785643333662    5.6503488559953787   -1.3433826866061462
   0.0000000000000000    0.0000000000000000    6.3264858700000000
Ga O
4 5
direct
   0.6588383000000000    0.3147303400000000    0.3176765900000000 Ga
   0.3411617000000000    0.6852696600000000    0.6823234100000000 Ga
   0.0904734000000000    0.7947860000000000    0.1809487900000000 Ga
   0.9095266000000000    0.2052140000000000    0.8190512100000000 Ga
   0.4964691300000000    0.2566640900000000    0.9929382500000000 O
   0.5035308700000000    0.7433359100000000    0.0070617500000000 O
   0.1733710600000000    0.5632301600000000    0.3467421200000000 O
   0.8266289400000000    0.4367698400000000    0.6532578800000000 O
   0.1645044800000000    0.1091540800000000    0.3290099700000000 O
